p cnf 50 950
1 -50 -42 0
1 -50 -39 0
1 -50 -38 0
1 -50 -35 0
1 -50 -34 0
1 -50 -28 0
1 -50 -23 0
1 -50 -22 0
1 -50 -21 0
1 -50 -13 0
1 -50 -2 0
1 -50 3 0
1 -50 4 0
1 -50 21 0
1 -50 27 0
1 -50 38 0
1 -50 44 0
1 -50 46 0
1 -50 49 0
1 -49 -46 0
1 -49 -45 0
1 -49 -41 0
1 -49 -34 0
1 -49 -32 0
1 -49 -29 0
1 -49 -20 0
1 -49 -19 0
1 -49 -5 0
1 -49 -4 0
1 -49 12 0
1 -49 13 0
1 -49 16 0
1 -49 20 0
1 -49 32 0
1 -49 33 0
1 -49 36 0
1 -49 45 0
1 -49 48 0
1 -48 -45 0
1 -48 -44 0
1 -48 -43 0
1 -48 -39 0
1 -48 -30 0
1 -48 -29 0
1 -48 -25 0
1 -48 -17 0
1 -48 -13 0
1 -48 -12 0
1 -48 -6 0
1 -48 -5 0
1 -48 -2 0
1 -48 3 0
1 -48 4 0
1 -48 12 0
1 -48 22 0
1 -48 32 0
1 -48 34 0
1 -47 -46 0
1 -47 -43 0
1 -47 -21 0
1 -47 -20 0
1 -47 2 0
1 -47 5 0
1 -47 10 0
1 -47 12 0
1 -47 16 0
1 -47 17 0
1 -47 22 0
1 -47 24 0
1 -47 26 0
1 -47 30 0
1 -47 37 0
1 -47 40 0
1 -47 41 0
1 -47 42 0
1 -47 50 0
1 -46 -44 0
1 -46 -41 0
1 -46 -22 0
1 -46 -21 0
1 -46 -19 0
1 -46 -16 0
1 -46 -14 0
1 -46 -6 0
1 -46 -5 0
1 -46 7 0
1 -46 11 0
1 -46 22 0
1 -46 25 0
1 -46 26 0
1 -46 29 0
1 -46 32 0
1 -46 47 0
1 -45 -44 0
1 -45 -43 0
1 -45 -24 0
1 -45 -22 0
1 -45 -21 0
1 -45 -17 0
1 -45 -7 0
1 -45 -5 0
1 -45 -4 0
1 -45 -3 0
1 -45 9 0
1 -45 12 0
1 -45 14 0
1 -45 17 0
1 -45 30 0
1 -45 44 0
1 -45 49 0
1 -44 -40 0
1 -44 -38 0
1 -44 -35 0
1 -44 -29 0
1 -44 -26 0
1 -44 -20 0
1 -44 -19 0
1 -44 -12 0
1 -44 -4 0
1 -44 5 0
1 -44 25 0
1 -44 29 0
1 -44 38 0
1 -44 39 0
1 -44 40 0
1 -44 45 0
1 -43 -38 0
1 -43 -36 0
1 -43 -22 0
1 -43 -16 0
1 -43 -13 0
1 -43 -12 0
1 -43 -11 0
1 -43 -7 0
1 -43 6 0
1 -43 23 0
1 -43 26 0
1 -43 27 0
1 -43 32 0
1 -43 45 0
1 -43 48 0
1 -43 49 0
1 -42 -39 0
1 -42 -37 0
1 -42 -31 0
1 -42 -27 0
1 -42 -23 0
1 -42 -22 0
1 -42 -13 0
1 -42 -10 0
1 -42 -6 0
1 -42 -4 0
1 -42 9 0
1 -42 12 0
1 -42 16 0
1 -42 26 0
1 -42 43 0
1 -42 44 0
1 -42 45 0
1 -42 50 0
1 -41 -39 0
1 -41 -32 0
1 -41 -27 0
1 -41 -26 0
1 -41 -25 0
1 -41 -23 0
1 -41 -19 0
1 -41 -11 0
1 -41 -1 0
1 -41 7 0
1 -41 8 0
1 -41 11 0
1 -41 28 0
1 -41 33 0
1 -41 36 0
1 -41 42 0
1 -41 46 0
1 -40 -36 0
1 -40 -34 0
1 -40 -21 0
1 -40 -19 0
1 -40 -18 0
1 -40 -15 0
1 -40 -14 0
1 -40 -11 0
1 -40 -8 0
1 -40 15 0
1 -40 18 0
1 -40 19 0
1 -40 27 0
1 -40 28 0
1 -40 31 0
1 -40 33 0
1 -40 35 0
1 -40 36 0
1 -39 -36 0
1 -39 -31 0
1 -39 -24 0
1 -39 -20 0
1 -39 -14 0
1 -39 10 0
1 -39 20 0
1 -39 21 0
1 -39 23 0
1 -39 26 0
1 -39 30 0
1 -39 32 0
1 -39 40 0
1 -39 41 0
1 -39 47 0
1 -38 -22 0
1 -38 -20 0
1 -38 -13 0
1 -38 -9 0
1 -38 -4 0
1 -38 2 0
1 -38 15 0
1 -38 19 0
1 -38 21 0
1 -38 22 0
1 -38 26 0
1 -38 28 0
1 -38 33 0
1 -38 36 0
1 -38 39 0
1 -38 49 0
1 -37 -32 0
1 -37 -27 0
1 -37 -24 0
1 -37 -22 0
1 -37 -12 0
1 -37 -10 0
1 -37 -9 0
1 -37 -7 0
1 -37 -5 0
1 -37 1 0
1 -37 8 0
1 -37 10 0
1 -37 20 0
1 -37 29 0
1 -37 31 0
1 -37 33 0
1 -37 43 0
1 -37 46 0
1 -36 -33 0
1 -36 -19 0
1 -36 -7 0
1 -36 -3 0
1 -36 6 0
1 -36 9 0
1 -36 10 0
1 -36 13 0
1 -36 19 0
1 -36 23 0
1 -36 27 0
1 -36 28 0
1 -36 33 0
1 -36 37 0
1 -36 49 0
1 -36 50 0
1 -35 -32 0
1 -35 -31 0
1 -35 -28 0
1 -35 -21 0
1 -35 -12 0
1 -35 -9 0
1 -35 -7 0
1 -35 -6 0
1 -35 3 0
1 -35 7 0
1 -35 14 0
1 -35 19 0
1 -35 24 0
1 -35 34 0
1 -35 45 0
1 -35 47 0
1 -35 48 0
1 -34 -29 0
1 -34 -27 0
1 -34 -18 0
1 -34 -15 0
1 -34 -10 0
1 -34 -5 0
1 -34 11 0
1 -34 17 0
1 -34 20 0
1 -34 23 0
1 -34 28 0
1 -34 36 0
1 -34 39 0
1 -34 42 0
1 -34 43 0
1 -34 46 0
1 -33 -32 0
1 -33 -29 0
1 -33 -28 0
1 -33 -24 0
1 -33 -11 0
1 -33 -7 0
1 -33 -1 0
1 -33 1 0
1 -33 2 0
1 -33 12 0
1 -33 14 0
1 -33 16 0
1 -33 17 0
1 -33 27 0
1 -33 30 0
1 -33 37 0
1 -33 39 0
1 -33 50 0
1 -32 -23 0
1 -32 -16 0
1 -32 -10 0
1 -32 -7 0
1 -32 3 0
1 -32 7 0
1 -32 12 0
1 -32 15 0
1 -32 19 0
1 -32 29 0
1 -32 36 0
1 -32 38 0
1 -32 49 0
1 -32 50 0
1 -31 -30 0
1 -31 -26 0
1 -31 -20 0
1 -31 -18 0
1 -31 -11 0
1 -31 -7 0
1 -31 -5 0
1 -31 5 0
1 -31 7 0
1 -31 8 0
1 -31 9 0
1 -31 16 0
1 -31 38 0
1 -31 39 0
1 -31 42 0
1 -31 50 0
1 -30 -26 0
1 -30 -23 0
1 -30 -18 0
1 -30 -16 0
1 -30 -13 0
1 -30 2 0
1 -30 6 0
1 -30 10 0
1 -30 11 0
1 -30 12 0
1 -30 22 0
1 -30 24 0
1 -30 37 0
1 -30 38 0
1 -30 41 0
1 -30 48 0
1 -30 49 0
1 -29 -26 0
1 -29 -22 0
1 -29 -18 0
1 -29 -9 0
1 -29 -7 0
1 -29 -5 0
1 -29 -1 0
1 -29 6 0
1 -29 22 0
1 -29 25 0
1 -29 27 0
1 -29 33 0
1 -29 46 0
1 -29 47 0
1 -28 -10 0
1 -28 -9 0
1 -28 -1 0
1 -28 8 0
1 -28 10 0
1 -28 12 0
1 -28 17 0
1 -28 21 0
1 -28 25 0
1 -28 26 0
1 -28 31 0
1 -28 34 0
1 -28 35 0
1 -28 37 0
1 -28 43 0
1 -28 47 0
1 -27 -8 0
1 -27 -3 0
1 -27 8 0
1 -27 10 0
1 -27 11 0
1 -27 15 0
1 -27 22 0
1 -27 24 0
1 -27 25 0
1 -27 28 0
1 -27 30 0
1 -27 31 0
1 -27 35 0
1 -27 43 0
1 -27 46 0
1 -26 -24 0
1 -26 -17 0
1 -26 -15 0
1 -26 -11 0
1 -26 -8 0
1 -26 4 0
1 -26 8 0
1 -26 9 0
1 -26 17 0
1 -26 37 0
1 -26 38 0
1 -26 42 0
1 -26 44 0
1 -26 45 0
1 -25 -24 0
1 -25 -20 0
1 -25 -16 0
1 -25 -11 0
1 -25 -8 0
1 -25 -1 0
1 -25 6 0
1 -25 9 0
1 -25 10 0
1 -25 11 0
1 -25 12 0
1 -25 18 0
1 -25 27 0
1 -25 30 0
1 -25 37 0
1 -25 39 0
1 -25 40 0
1 -24 -19 0
1 -24 -9 0
1 -24 -4 0
1 -24 -3 0
1 -24 3 0
1 -24 14 0
1 -24 17 0
1 -24 20 0
1 -24 34 0
1 -24 38 0
1 -24 44 0
1 -24 46 0
1 -24 47 0
1 -23 -21 0
1 -23 -20 0
1 -23 -18 0
1 -23 -14 0
1 -23 -10 0
1 -23 1 0
1 -23 4 0
1 -23 5 0
1 -23 15 0
1 -23 29 0
1 -23 30 0
1 -23 38 0
1 -23 39 0
1 -23 47 0
1 -22 -19 0
1 -22 -13 0
1 -22 -8 0
1 -22 -7 0
1 -22 17 0
1 -22 20 0
1 -22 25 0
1 -22 28 0
1 -22 35 0
1 -22 38 0
1 -22 49 0
1 -21 -18 0
1 -21 -8 0
1 -21 -6 0
1 -21 1 0
1 -21 7 0
1 -21 17 0
1 -21 22 0
1 -21 23 0
1 -21 25 0
1 -21 26 0
1 -21 27 0
1 -21 41 0
1 -20 -19 0
1 -20 -16 0
1 -20 -9 0
1 -20 4 0
1 -20 10 0
1 -20 13 0
1 -20 15 0
1 -20 36 0
1 -20 41 0
1 -20 44 0
1 -20 46 0
1 -19 -15 0
1 -19 -14 0
1 -19 1 0
1 -19 2 0
1 -19 5 0
1 -19 6 0
1 -19 9 0
1 -19 21 0
1 -19 30 0
1 -19 36 0
1 -18 -5 0
1 -18 -4 0
1 -18 -3 0
1 -18 2 0
1 -18 7 0
1 -18 11 0
1 -18 14 0
1 -18 17 0
1 -18 19 0
1 -18 27 0
1 -18 30 0
1 -18 33 0
1 -17 -12 0
1 -17 -11 0
1 -17 -2 0
1 -17 4 0
1 -17 6 0
1 -17 10 0
1 -17 14 0
1 -17 20 0
1 -17 23 0
1 -17 26 0
1 -17 27 0
1 -17 37 0
1 -17 38 0
1 -17 44 0
1 -17 45 0
1 -17 47 0
1 -16 -15 0
1 -16 -10 0
1 -16 4 0
1 -16 8 0
1 -16 12 0
1 -16 18 0
1 -16 29 0
1 -16 33 0
1 -16 35 0
1 -16 37 0
1 -16 42 0
1 -16 47 0
1 -16 49 0
1 -15 -13 0
1 -15 -11 0
1 -15 1 0
1 -15 2 0
1 -15 5 0
1 -15 9 0
1 -15 11 0
1 -15 19 0
1 -15 21 0
1 -15 27 0
1 -15 31 0
1 -15 44 0
1 -15 46 0
1 -15 48 0
1 -14 -11 0
1 -14 -8 0
1 -14 5 0
1 -14 7 0
1 -14 10 0
1 -14 13 0
1 -14 18 0
1 -14 19 0
1 -14 35 0
1 -14 40 0
1 -14 41 0
1 -14 43 0
1 -14 44 0
1 -14 47 0
1 -13 -12 0
1 -13 -10 0
1 -13 -3 0
1 -13 -1 0
1 -13 6 0
1 -13 8 0
1 -13 10 0
1 -13 25 0
1 -13 33 0
1 -13 35 0
1 -13 50 0
1 -12 -6 0
1 -12 14 0
1 -12 16 0
1 -12 19 0
1 -12 22 0
1 -12 30 0
1 -12 33 0
1 -12 37 0
1 -12 38 0
1 -12 40 0
1 -12 42 0
1 -12 48 0
1 -11 -4 0
1 -11 10 0
1 -11 15 0
1 -11 21 0
1 -11 32 0
1 -11 36 0
1 -11 45 0
1 -11 48 0
1 -11 49 0
1 -10 -4 0
1 -10 4 0
1 -10 7 0
1 -10 9 0
1 -10 23 0
1 -10 25 0
1 -10 26 0
1 -10 27 0
1 -10 32 0
1 -10 34 0
1 -10 36 0
1 -9 -6 0
1 -9 -3 0
1 -9 -2 0
1 -9 7 0
1 -9 12 0
1 -9 13 0
1 -9 20 0
1 -9 21 0
1 -9 24 0
1 -9 27 0
1 -9 31 0
1 -9 41 0
1 -8 1 0
1 -8 5 0
1 -8 17 0
1 -8 18 0
1 -8 25 0
1 -8 30 0
1 -8 33 0
1 -8 36 0
1 -8 42 0
1 -8 43 0
1 -8 46 0
1 -8 50 0
1 -7 15 0
1 -7 25 0
1 -7 26 0
1 -7 29 0
1 -7 31 0
1 -7 35 0
1 -7 43 0
1 -7 45 0
1 -7 46 0
1 -6 -5 0
1 -6 -4 0
1 -6 -2 0
1 -6 2 0
1 -6 7 0
1 -6 8 0
1 -6 13 0
1 -6 14 0
1 -6 18 0
1 -6 19 0
1 -6 29 0
1 -6 30 0
1 -5 -4 0
1 -5 17 0
1 -5 20 0
1 -5 28 0
1 -5 29 0
1 -5 35 0
1 -5 38 0
1 -5 45 0
1 -5 47 0
1 -4 -2 0
1 -4 8 0
1 -4 13 0
1 -4 18 0
1 -4 28 0
1 -4 36 0
1 -4 37 0
1 -4 39 0
1 -3 2 0
1 -3 7 0
1 -3 13 0
1 -3 14 0
1 -3 15 0
1 -3 16 0
1 -3 20 0
1 -3 28 0
1 -3 31 0
1 -3 41 0
1 -3 44 0
1 -3 45 0
1 -2 -1 0
1 -2 8 0
1 -2 9 0
1 -2 12 0
1 -2 16 0
1 -2 18 0
1 -2 19 0
1 -2 28 0
1 -2 32 0
1 -2 42 0
1 -2 45 0
1 -2 47 0
1 -2 49 0
1 -1 8 0
1 -1 11 0
1 -1 14 0
1 -1 22 0
1 -1 26 0
1 -1 30 0
1 -1 32 0
1 -1 40 0
1 -1 42 0
1 -1 43 0
1 -1 46 0
1 -1 48 0
1 1 3 0
1 1 4 0
1 1 6 0
1 1 7 0
1 1 10 0
1 1 15 0
1 1 29 0
1 1 33 0
1 1 34 0
1 1 35 0
1 1 40 0
1 1 41 0
1 2 4 0
1 2 9 0
1 2 13 0
1 2 23 0
1 2 29 0
1 2 32 0
1 2 34 0
1 2 39 0
1 2 44 0
1 2 45 0
1 3 7 0
1 3 13 0
1 3 15 0
1 3 18 0
1 3 19 0
1 3 21 0
1 3 24 0
1 3 25 0
1 3 26 0
1 3 35 0
1 3 38 0
1 3 39 0
1 3 43 0
1 4 5 0
1 4 9 0
1 4 12 0
1 4 17 0
1 4 31 0
1 4 34 0
1 4 35 0
1 4 36 0
1 4 39 0
1 5 12 0
1 5 15 0
1 5 16 0
1 5 20 0
1 5 25 0
1 5 32 0
1 5 43 0
1 5 45 0
1 5 46 0
1 5 48 0
1 6 12 0
1 6 13 0
1 6 20 0
1 6 21 0
1 6 22 0
1 6 39 0
1 6 43 0
1 6 46 0
1 6 48 0
1 6 49 0
1 7 15 0
1 7 20 0
1 7 28 0
1 7 35 0
1 7 41 0
1 8 15 0
1 8 23 0
1 8 24 0
1 8 26 0
1 8 30 0
1 8 43 0
1 8 44 0
1 9 17 0
1 9 18 0
1 9 19 0
1 9 33 0
1 9 38 0
1 9 40 0
1 9 41 0
1 10 12 0
1 10 30 0
1 10 40 0
1 10 49 0
1 10 50 0
1 11 16 0
1 11 20 0
1 11 21 0
1 11 24 0
1 11 25 0
1 11 30 0
1 11 31 0
1 11 34 0
1 11 41 0
1 11 45 0
1 12 23 0
1 12 40 0
1 13 17 0
1 13 22 0
1 13 26 0
1 13 27 0
1 13 29 0
1 13 32 0
1 13 46 0
1 13 48 0
1 14 15 0
1 14 24 0
1 14 29 0
1 14 31 0
1 14 35 0
1 14 37 0
1 14 39 0
1 14 46 0
1 14 50 0
1 15 23 0
1 15 27 0
1 15 30 0
1 15 50 0
1 16 22 0
1 16 28 0
1 16 34 0
1 16 38 0
1 16 39 0
1 16 44 0
1 16 45 0
1 16 47 0
1 16 49 0
1 17 18 0
1 17 40 0
1 17 43 0
1 17 47 0
1 18 20 0
1 18 21 0
1 18 22 0
1 18 27 0
1 18 34 0
1 18 37 0
1 18 41 0
1 18 42 0
1 19 26 0
1 19 28 0
1 19 31 0
1 19 32 0
1 19 33 0
1 19 48 0
1 20 23 0
1 20 37 0
1 20 41 0
1 20 50 0
1 21 23 0
1 21 25 0
1 21 27 0
1 21 30 0
1 21 42 0
1 21 49 0
1 21 50 0
1 22 24 0
1 22 34 0
1 22 41 0
1 22 42 0
1 22 48 0
1 23 29 0
1 23 31 0
1 23 35 0
1 23 36 0
1 23 37 0
1 23 44 0
1 24 29 0
1 24 31 0
1 24 32 0
1 24 34 0
1 24 39 0
1 24 42 0
1 24 44 0
1 24 47 0
1 24 48 0
1 25 29 0
1 25 35 0
1 25 47 0
1 25 50 0
1 26 33 0
1 26 34 0
1 26 45 0
1 27 32 0
1 27 44 0
1 28 33 0
1 28 35 0
1 28 40 0
1 28 43 0
1 28 49 0
1 29 31 0
1 29 37 0
1 29 50 0
1 30 33 0
1 31 36 0
1 31 42 0
1 31 47 0
1 31 48 0
1 32 38 0
1 32 46 0
1 32 49 0
1 32 50 0
1 33 36 0
1 34 35 0
1 34 36 0
1 34 39 0
1 34 42 0
1 34 43 0
1 35 48 0
1 36 46 0
1 36 50 0
1 37 38 0
1 37 40 0
1 37 41 0
1 38 41 0
1 38 43 0
1 39 43 0
1 39 45 0
1 39 48 0
1 40 42 0
1 40 44 0
1 40 45 0
1 40 49 0
1 40 50 0
1 41 42 0
1 41 43 0
1 42 48 0
1 44 47 0
1 44 50 0
1 46 49 0
1 47 48 0
